
Gurobi 13.0.2 (win64) logging started Thu Jul 23 04:26:08 2026

Set parameter LogFile to value "E:\codes\ExactEBRP\results\gf_cplex_equivalent_gurobi_replica_round28\runs\stage1__V12_M1__c3_replica__300s\external\native_logs\R.1.0.0.0.1.0.1.0.1.1_terminal_mip.gurobi.log"
Gurobi Optimizer version 13.0.2 build v13.0.2rc1 (win64 - Windows 10.0 (19045.2))

CPU model: 12th Gen Intel(R) Core(TM) i7-12700KF, instruction set [SSE2|AVX|AVX2]
Thread count: 12 physical cores, 20 logical processors, using up to 1 threads

Non-default parameters:
TimeLimit  2.4463201679999997e+02
MIPGap  0
MIPGapAbs  0
LogToConsole  0
Threads  1

Optimize a model with 6225 rows, 648 columns and 59365 nonzeros (Min)
Model fingerprint: 0xf1195aa8
Model has 13 linear objective coefficients
Variable types: 347 continuous, 301 integer (253 binary)
Coefficient statistics:
  Matrix range     [2e-03, 1e+05]
  Objective range  [2e-03, 1e+00]
  Bounds range     [1e-01, 8e+01]
  RHS range        [3e-02, 1e+06]

Presolve removed 742 rows and 27 columns
Presolve time: 0.13s
Presolved: 5483 rows, 621 columns, 58745 nonzeros
Variable types: 321 continuous, 300 integer (252 binary)

Root relaxation: objective 3.223812e-01, 1006 iterations, 0.05 seconds (0.15 work units)

    Nodes    |    Current Node    |     Objective Bounds      |     Work
 Expl Unexpl |  Obj  Depth IntInf | Incumbent    BestBd   Gap | It/Node Time

     0     0    0.32238    0  110          -    0.32238      -     -    0s
     0     0    0.33035    0   62          -    0.33035      -     -    0s
     0     0    0.33204    0   73          -    0.33204      -     -    0s
     0     0    0.34432    0  101          -    0.34432      -     -    0s
     0     0    0.34909    0  112          -    0.34909      -     -    0s
     0     0 infeasible    0               - infeasible      -     -    1s

Cutting planes:
  Learned: 2
  Gomory: 4
  Cover: 19
  Implied bound: 42
  Clique: 27
  MIR: 78
  StrongCG: 2
  Flow cover: 28
  GUB cover: 1
  Zero half: 1
  Network: 4
  RLT: 14
  Relax-and-lift: 8
  BQP: 8
  PSD: 1

Explored 1 nodes (1694 simplex iterations) in 1.05 seconds (1.25 work units)
Thread count was 1 (of 20 available processors)

Solution count 0

Model is infeasible
Best objective -, best bound -, gap -

User-callback calls 1002, time in user-callback 0.00 sec
